Version identifier: 20.1.0.0 | 2020-11-10 | 9bedb6d68
Tried aggregator 2 times.
MIP Presolve eliminated 1727 rows and 967 columns.
MIP Presolve modified 3434 coefficients.
Aggregator did 182 substitutions.
Reduced MIP has 1497 rows, 1258 columns, and 4773 nonzeros.
Reduced MIP has 318 binaries, 940 generals, 0 SOSs, and 0 indicators.
Presolve time = 0.02 sec. (7.59 ticks)
Found incumbent of value 55.000000 after 0.03 sec. (13.27 ticks)
Probing fixed 40 vars, tightened 324 bounds.
Probing time = 0.00 sec. (1.69 ticks)
Tried aggregator 2 times.
Detecting symmetries...
MIP Presolve eliminated 606 rows and 52 columns.
MIP Presolve modified 100 coefficients.
Aggregator did 6 substitutions.
Reduced MIP has 885 rows, 1200 columns, and 2891 nonzeros.
Reduced MIP has 384 binaries, 816 generals, 0 SOSs, and 0 indicators.
Presolve time = 0.01 sec. (4.23 ticks)
Probing time = 0.00 sec. (0.21 ticks)
Clique table members: 41.
MIP emphasis: balance optimality and feasibility.
MIP search method: dynamic search.
Parallel mode: deterministic, using up to 24 threads.
Root relaxation solution time = 0.01 sec. (2.84 ticks)

        Nodes                                         Cuts/
   Node  Left     Objective  IInf  Best Integer    Best Bound    ItCnt     Gap

*     0+    0                           55.0000        0.0000           100.00%
      0     0        0.0000    51       55.0000        0.0000      267  100.00%
      0     0        1.0000    55       55.0000      Cuts: 73      407   98.18%
*     0+    0                           15.0000        1.0000            93.33%
      0     0        1.0000    56       15.0000      Cuts: 88      445   93.33%
      0     0        1.0000    63       15.0000      Cuts: 31      465   93.33%
*     0+    0                           10.0000        1.0000            90.00%
*     0+    0                            8.0000        1.0000            87.50%
      0     0        cutoff              8.0000        8.0000      465    0.00%
Elapsed time = 0.23 sec. (106.98 ticks, tree = 0.01 MB, solutions = 4)

Flow cuts applied:  2
Mixed integer rounding cuts applied:  8
Zero-half cuts applied:  54
Lift and project cuts applied:  4
Gomory fractional cuts applied:  14

Root node processing (before b&c):
  Real time             =    0.23 sec. (107.12 ticks)
Parallel b&c, 24 threads:
  Real time             =    0.00 sec. (0.00 ticks)
  Sync time (average)   =    0.00 sec.
  Wait time (average)   =    0.00 sec.
                          ------------
Total (root+branch&cut) =    0.23 sec. (107.12 ticks)

Solution status = Optimal
Solution LB = 8
Solution UB = 8
Runtime = 0.239444 seconds
	Command being timed: "/home/min/git_repos/CS598MEBProject/CNT-ILP/build/cnt -s 2 ./output/k6_n40/simC_c1_k6_n40_u2_s1_del02.input-left.cnp"
	User time (seconds): 2.99
	System time (seconds): 0.05
	Percent of CPU this job got: 1088%
	Elapsed (wall clock) time (h:mm:ss or m:ss): 0:00.28
	Average shared text size (kbytes): 0
	Average unshared data size (kbytes): 0
	Average stack size (kbytes): 0
	Average total size (kbytes): 0
	Maximum resident set size (kbytes): 76004
	Average resident set size (kbytes): 0
	Major (requiring I/O) page faults: 0
	Minor (reclaiming a frame) page faults: 15774
	Voluntary context switches: 3000
	Involuntary context switches: 549
	Swaps: 0
	File system inputs: 0
	File system outputs: 16
	Socket messages sent: 0
	Socket messages received: 0
	Signals delivered: 0
	Page size (bytes): 4096
	Exit status: 0
